results/res_prop_muc/res_Cimatti_mathsat_cores/QF_LRA/pursuit-safety-3.smt.smt2.res
unsat
( c105
  c116
  c118
  c122
  c130
  c132
  c133
  c142
  c144
  c145
  c146
  c147
  c163
  c165
  c171
  c172
  c175
  c176
  c180
  c185
  c187
  c189
  c19
  c198
  c20
  c203
  c205
  c207
  c208
  c209
  c210
  c211
  c212
  c217
  c22
  c220
  c231
  c245
  c259
  c263
  c272
  c289
  c300
  c309
  c31
  c312
  c313
  c314
  c315
  c317
  c328
  c33
  c330
  c338
  c339
  c340
  c342
  c343
  c352
  c354
  c356
  c36
  c365
  c370
  c371
  c372
  c374
  c375
  c376
  c377
  c378
  c38
  c383
  c394
  c398
  c40
  c41
  c413
  c415
  c418
  c419
  c42
  c420
  c421
  c423
  c43
  c47
  c6
  c64
  c7
  c78
  c92
  c96 )
